0
Node Left Objective IInf Best_Integer Best_Bound ItCnt Gap
0+ 0 nan nan 136.4723 0.0000 nan 100.00%
0+ 0 nan nan 99.1655 0.0000 nan 100.00%
0 0 0.0000 28 99.1655 0.0000 111 100.00%
0+ 0 nan nan 89.4344 0.0000 nan 100.00%
0+ 0 nan nan 84.2873 0.0000 nan 100.00%
0+ 0 nan nan 83.4786 0.0000 nan 100.00%
0 2 0.0000 26 83.4786 0.0000 111 100.00%
CPXPARAM_MIP_Cuts_LiftProj 0
1
Node Left Objective IInf Best_Integer Best_Bound ItCnt Gap
0+ 0 nan nan 136.4723 0.0000 nan 100.00%
0+ 0 nan nan 99.1655 0.0000 nan 100.00%
0 0 0.0000 31 99.1655 0.0000 106 100.00%
0+ 0 nan nan 74.7431 0.0000 nan 100.00%
0+ 0 nan nan 73.5517 0.0000 nan 100.00%
0+ 0 nan nan 67.5650 0.0000 nan 100.00%
0+ 0 nan nan 53.6447 0.0000 nan 100.00%
0 2 0.0000 18 53.6447 0.0000 106 100.00%
CPXPARAM_MIP_Cuts_LiftProj 0
2
Node Left Objective IInf Best_Integer Best_Bound ItCnt Gap
0+ 0 nan nan 136.4723 0.0000 nan 100.00%
0+ 0 nan nan 69.8576 0.0000 nan 100.00%
0 0 0.0000 23 69.8576 0.0000 113 100.00%
0 0 0.0000 20 69.8576 LiftProj:1 118 100.00%
0 0 0.0000 20 69.8576 LiftProj:8 135 100.00%
0 0 0.0000 21 69.8576 LiftProj:7 152 100.00%
0+ 0 nan nan 69.5460 0.0000 nan 100.00%
0+ 0 nan nan 59.8914 0.0000 nan 100.00%
0 2 0.0000 20 59.8914 0.0000 152 100.00%
CPXPARAM_MIP_Cuts_LiftProj 1
3
Node Left Objective IInf Best_Integer Best_Bound ItCnt Gap
0+ 0 nan nan 136.4723 0.0000 nan 100.00%
0 0 0.0000 28 136.4723 0.0000 97 100.00%
0+ 0 nan nan 39.4022 0.0000 nan 100.00%
0+ 0 nan nan 38.0536 0.0000 nan 100.00%
0+ 0 nan nan 26.3184 0.0000 nan 100.00%
0 2 0.0000 13 26.3184 0.0000 97 100.00%
CPXPARAM_MIP_Cuts_LiftProj 0
4
Node Left Objective IInf Best_Integer Best_Bound ItCnt Gap
0+ 0 nan nan 115.1924 0.0000 nan 100.00%
0+ 0 nan nan 108.1598 0.0000 nan 100.00%
0 0 0.0000 27 108.1598 0.0000 113 100.00%
0+ 0 nan nan 104.3379 0.0000 nan 100.00%
0 0 0.0000 25 104.3379 LiftProj:1 115 100.00%
0+ 0 nan nan 91.8389 0.0000 nan 100.00%
0 0 0.0000 26 91.8389 LiftProj:7 147 100.00%
0+ 0 nan nan 90.3097 0.0000 nan 100.00%
0 0 0.0000 26 90.3097 LiftProj:6 154 100.00%
0+ 0 nan nan 68.6448 0.0000 nan 100.00%
0 2 0.0000 26 68.6448 0.0000 154 100.00%
CPXPARAM_MIP_Cuts_LiftProj 4
5
Node Left Objective IInf Best_Integer Best_Bound ItCnt Gap
0+ 0 nan nan 115.1924 0.0000 nan 100.00%
0+ 0 nan nan 108.1598 0.0000 nan 100.00%
0 0 0.0000 30 108.1598 0.0000 101 100.00%
0+ 0 nan nan 67.1398 0.0000 nan 100.00%
0+ 0 nan nan 51.4818 0.0000 nan 100.00%
0+ 0 nan nan 32.9566 0.0000 nan 100.00%
0 2 0.0000 19 32.9566 0.0000 101 100.00%
CPXPARAM_MIP_Cuts_LiftProj 0
6
Node Left Objective IInf Best_Integer Best_Bound ItCnt Gap
0+ 0 nan nan 115.1924 0.0000 nan 100.00%
0+ 0 nan nan 81.9438 0.0000 nan 100.00%
0 0 0.0000 24 81.9438 0.0000 119 100.00%
0+ 0 nan nan 78.1554 0.0000 nan 100.00%
0+ 0 nan nan 68.8652 0.0000 nan 100.00%
0+ 0 nan nan 57.0880 0.0000 nan 100.00%
0 2 0.0000 20 57.0880 0.0000 119 100.00%
CPXPARAM_MIP_Cuts_LiftProj 0
7
Node Left Objective IInf Best_Integer Best_Bound ItCnt Gap
0+ 0 nan nan 115.1924 0.0000 nan 100.00%
0 0 0.0000 30 115.1924 0.0000 95 100.00%
0+ 0 nan nan 56.4052 0.0000 nan 100.00%
0+ 0 nan nan 43.2799 0.0000 nan 100.00%
0+ 0 nan nan 33.9395 0.0000 nan 100.00%
0 2 0.0000 13 33.9395 0.0000 95 100.00%
CPXPARAM_MIP_Cuts_LiftProj 0
8
Node Left Objective IInf Best_Integer Best_Bound ItCnt Gap
0+ 0 nan nan 131.6037 0.0000 nan 100.00%
0+ 0 nan nan 111.2422 0.0000 nan 100.00%
0 0 0.0000 28 111.2422 0.0000 113 100.00%
0 0 0.0000 26 111.2422 LiftProj:3 117 100.00%
0 0 0.0000 26 111.2422 LiftProj:4 142 100.00%
0 0 0.0000 25 111.2422 LiftProj:6 158 100.00%
0+ 0 nan nan 109.2040 0.0000 nan 100.00%
0 2 0.0000 25 109.2040 0.0000 158 100.00%
CPXPARAM_MIP_Cuts_LiftProj 3
9
Node Left Objective IInf Best_Integer Best_Bound ItCnt Gap
0+ 0 nan nan 131.6037 0.0000 nan 100.00%
0 0 0.0000 27 131.6037 0.0000 90 100.00%
0+ 0 nan nan 78.9542 0.0000 nan 100.00%
0+ 0 nan nan 72.9282 0.0000 nan 100.00%
0+ 0 nan nan 72.3116 0.0000 nan 100.00%
0+ 0 nan nan 57.8894 0.0000 nan 100.00%
0+ 0 nan nan 52.2569 0.0000 nan 100.00%
0 2 0.0000 19 52.2569 0.0000 90 100.00%
CPXPARAM_MIP_Cuts_LiftProj 0
10
Node Left Objective IInf Best_Integer Best_Bound ItCnt Gap
0+ 0 nan nan 131.6037 0.0000 nan 100.00%
0+ 0 nan nan 99.6733 0.0000 nan 100.00%
0 0 0.0000 23 99.6733 0.0000 104 100.00%
0 0 0.0000 20 99.6733 LiftProj:1 111 100.00%
0 0 0.0000 20 99.6733 LiftProj:4 120 100.00%
0 0 0.0000 21 99.6733 LiftProj:3 131 100.00%
0+ 0 nan nan 90.8567 0.0000 nan 100.00%
0+ 0 nan nan 85.8726 0.0000 nan 100.00%
0 2 0.0000 20 85.8726 0.0000 131 100.00%
CPXPARAM_MIP_Cuts_LiftProj 3
11
Node Left Objective IInf Best_Integer Best_Bound ItCnt Gap
0+ 0 nan nan 131.6037 0.0000 nan 100.00%
0 0 0.0000 27 131.6037 0.0000 91 100.00%
0+ 0 nan nan 80.8991 0.0000 nan 100.00%
0+ 0 nan nan 61.1346 0.0000 nan 100.00%
0+ 0 nan nan 59.5565 0.0000 nan 100.00%
0+ 0 nan nan 58.6083 0.0000 nan 100.00%
0+ 0 nan nan 50.1961 0.0000 nan 100.00%
0 2 0.0000 15 50.1961 0.0000 91 100.00%
CPXPARAM_MIP_Cuts_LiftProj 0
12
Node Left Objective IInf Best_Integer Best_Bound ItCnt Gap
0+ 0 nan nan 110.3567 0.0000 nan 100.00%
0+ 0 nan nan 96.6816 0.0000 nan 100.00%
0 0 0.0000 28 96.6816 0.0000 120 100.00%
0+ 0 nan nan 90.9897 0.0000 nan 100.00%
0+ 0 nan nan 85.8097 0.0000 nan 100.00%
0 2 0.0000 25 85.8097 0.0000 120 100.00%
CPXPARAM_MIP_Cuts_LiftProj 0
13
Node Left Objective IInf Best_Integer Best_Bound ItCnt Gap
0+ 0 nan nan 110.3567 0.0000 nan 100.00%
0 0 0.0000 29 110.3567 0.0000 95 100.00%
0+ 0 nan nan 73.5274 0.0000 nan 100.00%
0+ 0 nan nan 58.1615 0.0000 nan 100.00%
0 2 0.0000 19 58.1615 0.0000 95 100.00%
CPXPARAM_MIP_Cuts_LiftProj 0
14
Node Left Objective IInf Best_Integer Best_Bound ItCnt Gap
0+ 0 nan nan 110.3567 0.0000 nan 100.00%
0+ 0 nan nan 82.1268 0.0000 nan 100.00%
0 0 0.0000 23 82.1268 0.0000 108 100.00%
0 0 0.0000 21 82.1268 LiftProj:1 112 100.00%
0 0 0.0000 22 82.1268 LiftProj:7 126 100.00%
0 0 0.0000 21 82.1268 LiftProj:3 128 100.00%
0+ 0 nan nan 75.4826 0.0000 nan 100.00%
0+ 0 nan nan 57.1646 0.0000 nan 100.00%
0 2 0.0000 21 57.1646 0.0000 128 100.00%
CPXPARAM_MIP_Cuts_LiftProj 1
15
Node Left Objective IInf Best_Integer Best_Bound ItCnt Gap
0+ 0 nan nan 110.3567 0.0000 nan 100.00%
0 0 0.0000 30 110.3567 0.0000 91 100.00%
0+ 0 nan nan 60.8183 0.0000 nan 100.00%
0+ 0 nan nan 51.0672 0.0000 nan 100.00%
0+ 0 nan nan 40.5427 0.0000 nan 100.00%
0 2 0.0000 13 40.5427 0.0000 91 100.00%
CPXPARAM_MIP_Cuts_LiftProj 0
16
Node Left Objective IInf Best_Integer Best_Bound ItCnt Gap
0+ 0 nan nan 109.2984 0.0000 nan 100.00%
0+ 0 nan nan 97.6971 0.0000 nan 100.00%
0 0 0.0000 29 97.6971 0.0000 108 100.00%
0 0 0.0000 25 97.6971 LiftProj:1 115 100.00%
0 0 0.0000 25 97.6971 LiftProj:4 124 100.00%
0+ 0 nan nan 93.7371 0.0000 nan 100.00%
0 0 0.0000 25 93.7371 LiftProj:4 135 100.00%
0 2 0.0000 25 93.7371 0.0000 135 100.00%
CPXPARAM_MIP_Cuts_LiftProj 2
17
Node Left Objective IInf Best_Integer Best_Bound ItCnt Gap
0+ 0 nan nan 109.2984 0.0000 nan 100.00%
0+ 0 nan nan 97.6971 0.0000 nan 100.00%
0 0 0.0000 28 97.6971 0.0000 90 100.00%
0+ 0 nan nan 86.4966 0.0000 nan 100.00%
0+ 0 nan nan 69.6270 0.0000 nan 100.00%
0+ 0 nan nan 67.3836 0.0000 nan 100.00%
0+ 0 nan nan 45.8824 0.0000 nan 100.00%
0 2 0.0000 19 45.8824 0.0000 90 100.00%
CPXPARAM_MIP_Cuts_LiftProj 0
18
Node Left Objective IInf Best_Integer Best_Bound ItCnt Gap
0+ 0 nan nan 109.2984 0.0000 nan 100.00%
0+ 0 nan nan 86.6088 0.0000 nan 100.00%
0 0 0.0000 23 86.6088 0.0000 113 100.00%
0 0 0.0000 21 86.6088 LiftProj:1 119 100.00%
0 0 0.0000 22 86.6088 LiftProj:7 138 100.00%
0 0 0.0000 23 86.6088 LiftProj:6 149 100.00%
0+ 0 nan nan 79.7037 0.0000 nan 100.00%
0+ 0 nan nan 78.5820 0.0000 nan 100.00%
0+ 0 nan nan 58.0309 0.0000 nan 100.00%
0 2 0.0000 20 58.0309 0.0000 149 100.00%
CPXPARAM_MIP_Cuts_LiftProj 1
19
Node Left Objective IInf Best_Integer Best_Bound ItCnt Gap
0+ 0 nan nan 109.2984 0.0000 nan 100.00%
0 0 0.0000 26 109.2984 0.0000 87 100.00%
0+ 0 nan nan 64.4883 0.0000 nan 100.00%
0+ 0 nan nan 56.0213 0.0000 nan 100.00%
0+ 0 nan nan 51.9445 0.0000 nan 100.00%
0 2 0.0000 13 51.9445 0.0000 87 100.00%
CPXPARAM_MIP_Cuts_LiftProj 0
20
Node Left Objective IInf Best_Integer Best_Bound ItCnt Gap
0+ 0 nan nan 93.3792 0.0000 nan 100.00%
0+ 0 nan nan 84.6822 0.0000 nan 100.00%
0 0 0.0000 27 84.6822 0.0000 110 100.00%
0+ 0 nan nan 79.4096 0.0000 nan 100.00%
0 0 0.0000 26 79.4096 LiftProj:1 117 100.00%
0+ 0 nan nan 67.6712 0.0000 nan 100.00%
0 0 0.0000 26 67.6712 LiftProj:3 130 100.00%
0+ 0 nan nan 58.3268 0.0000 nan 100.00%
0+ 0 nan nan 45.9314 0.0000 nan 100.00%
0 2 0.0000 25 45.9314 0.0000 130 100.00%
CPXPARAM_MIP_Cuts_LiftProj 0
21
Node Left Objective IInf Best_Integer Best_Bound ItCnt Gap
0+ 0 nan nan 93.3792 0.0000 nan 100.00%
0+ 0 nan nan 84.6822 0.0000 nan 100.00%
0 0 0.0000 31 84.6822 0.0000 99 100.00%
0+ 0 nan nan 48.4437 0.0000 nan 100.00%
0+ 0 nan nan 41.2947 0.0000 nan 100.00%
0+ 0 nan nan 35.5315 0.0000 nan 100.00%
0 2 0.0000 19 35.5315 0.0000 99 100.00%
CPXPARAM_MIP_Cuts_LiftProj 0
22
Node Left Objective IInf Best_Integer Best_Bound ItCnt Gap
0+ 0 nan nan 93.3792 0.0000 nan 100.00%
0+ 0 nan nan 77.4137 0.0000 nan 100.00%
0 0 0.0000 23 77.4137 0.0000 115 100.00%
0+ 0 nan nan 59.6779 0.0000 nan 100.00%
0+ 0 nan nan 52.9233 0.0000 nan 100.00%
0+ 0 nan nan 41.5833 0.0000 nan 100.00%
0 2 0.0000 22 41.5833 0.0000 115 100.00%
CPXPARAM_MIP_Cuts_LiftProj 0
23
Node Left Objective IInf Best_Integer Best_Bound ItCnt Gap
0+ 0 nan nan 93.3792 0.0000 nan 100.00%
0+ 0 nan nan 77.4137 0.0000 nan 100.00%
0 0 0.0000 26 77.4137 0.0000 103 100.00%
0+ 0 nan nan 20.9566 0.0000 nan 100.00%
0+ 0 nan nan 18.0298 0.0000 nan 100.00%
0+ 0 nan nan 17.8582 0.0000 nan 100.00%
0+ 0 nan nan 8.6955 0.0000 nan 100.00%
0 2 0.0000 14 8.6955 0.0000 103 100.00%
CPXPARAM_MIP_Cuts_LiftProj 0
24
Node Left Objective IInf Best_Integer Best_Bound ItCnt Gap
0+ 0 nan nan 94.5045 0.0000 nan 100.00%
0+ 0 nan nan 83.7373 0.0000 nan 100.00%
0 0 0.0000 28 83.7373 0.0000 111 100.00%
0+ 0 nan nan 76.9365 0.0000 nan 100.00%
0 0 0.0000 25 76.9365 LiftProj:2 122 100.00%
0+ 0 nan nan 75.3671 0.0000 nan 100.00%
0 0 0.0000 26 75.3671 LiftProj:8 139 100.00%
0+ 0 nan nan 74.8348 0.0000 nan 100.00%
0+ 0 nan nan 69.8189 0.0000 nan 100.00%
0+ 0 nan nan 60.9538 0.0000 nan 100.00%
0 2 0.0000 25 60.9538 0.0000 139 100.00%
CPXPARAM_MIP_Cuts_LiftProj 1
25
Node Left Objective IInf Best_Integer Best_Bound ItCnt Gap
0+ 0 nan nan 94.5045 0.0000 nan 100.00%
0 0 0.0000 31 94.5045 0.0000 95 100.00%
0+ 0 nan nan 62.0483 0.0000 nan 100.00%
0+ 0 nan nan 53.8404 0.0000 nan 100.00%
0+ 0 nan nan 52.4296 0.0000 nan 100.00%
0+ 0 nan nan 44.3133 0.0000 nan 100.00%
0 2 0.0000 19 44.3133 0.0000 95 100.00%
CPXPARAM_MIP_Cuts_LiftProj 0
26
Node Left Objective IInf Best_Integer Best_Bound ItCnt Gap
0+ 0 nan nan 94.5045 0.0000 nan 100.00%
0+ 0 nan nan 77.5045 0.0000 nan 100.00%
0 0 0.0000 25 77.5045 0.0000 112 100.00%
0+ 0 nan nan 70.0813 0.0000 nan 100.00%
0 0 0.0000 24 70.0813 LiftProj:1 114 100.00%
0+ 0 nan nan 68.8610 0.0000 nan 100.00%
0 0 0.0000 23 68.8610 LiftProj:12 142 100.00%
0+ 0 nan nan 61.3197 0.0000 nan 100.00%
0 0 0.0000 20 61.3197 LiftProj:9 149 100.00%
0+ 0 nan nan 49.9938 0.0000 nan 100.00%
0 0 0.0000 21 49.9938 LiftProj:5 177 100.00%
0+ 0 nan nan 49.1600 0.0000 nan 100.00%
0 2 0.0000 21 49.1600 0.0000 177 100.00%
CPXPARAM_MIP_Cuts_LiftProj 4
27
Node Left Objective IInf Best_Integer Best_Bound ItCnt Gap
0+ 0 nan nan 94.5045 0.0000 nan 100.00%
0 0 0.0000 27 94.5045 0.0000 91 100.00%
0+ 0 nan nan 38.5485 0.0000 nan 100.00%
0+ 0 nan nan 34.2660 0.0000 nan 100.00%
0+ 0 nan nan 33.2351 0.0000 nan 100.00%
0+ 0 nan nan 23.9818 0.0000 nan 100.00%
0 2 0.0000 17 23.9818 0.0000 91 100.00%
CPXPARAM_MIP_Cuts_LiftProj 0
28
Node Left Objective IInf Best_Integer Best_Bound ItCnt Gap
0+ 0 nan nan 133.7092 0.0000 nan 100.00%
0+ 0 nan nan 129.6212 0.0000 nan 100.00%
0 0 0.0000 30 129.6212 0.0000 103 100.00%
0 0 0.0000 25 129.6212 LiftProj:1 115 100.00%
0+ 0 nan nan 123.2963 0.0000 nan 100.00%
0 0 0.0000 25 123.2963 LiftProj:1 123 100.00%
0+ 0 nan nan 120.4832 0.0000 nan 100.00%
0 0 0.0000 26 120.4832 LiftProj:7 134 100.00%
0+ 0 nan nan 115.5905 0.0000 nan 100.00%
0+ 0 nan nan 103.0994 0.0000 nan 100.00%
0 2 0.0000 25 103.0994 0.0000 134 100.00%
CPXPARAM_MIP_Cuts_LiftProj 0
29
Node Left Objective IInf Best_Integer Best_Bound ItCnt Gap
0+ 0 nan nan 133.7092 0.0000 nan 100.00%
0 0 0.0000 31 133.7092 0.0000 98 100.00%
0+ 0 nan nan 91.3907 0.0000 nan 100.00%
0+ 0 nan nan 76.1263 0.0000 nan 100.00%
0+ 0 nan nan 64.9913 0.0000 nan 100.00%
0+ 0 nan nan 53.4166 0.0000 nan 100.00%
0 2 0.0000 19 53.4166 0.0000 98 100.00%
CPXPARAM_MIP_Cuts_LiftProj 0
30
Node Left Objective IInf Best_Integer Best_Bound ItCnt Gap
0+ 0 nan nan 133.7092 0.0000 nan 100.00%
0+ 0 nan nan 114.7297 0.0000 nan 100.00%
0 0 0.0000 25 114.7297 0.0000 108 100.00%
0+ 0 nan nan 107.8528 0.0000 nan 100.00%
0+ 0 nan nan 97.0646 0.0000 nan 100.00%
0+ 0 nan nan 90.2830 0.0000 nan 100.00%
0+ 0 nan nan 75.1182 0.0000 nan 100.00%
0 2 0.0000 20 75.1182 0.0000 108 100.00%
CPXPARAM_MIP_Cuts_LiftProj 0
31
Node Left Objective IInf Best_Integer Best_Bound ItCnt Gap
0+ 0 nan nan 133.7092 0.0000 nan 100.00%
0 0 0.0000 29 133.7092 0.0000 94 100.00%
0+ 0 nan nan 87.7465 0.0000 nan 100.00%
0+ 0 nan nan 75.9944 0.0000 nan 100.00%
0+ 0 nan nan 73.9499 0.0000 nan 100.00%
0+ 0 nan nan 72.0403 0.0000 nan 100.00%
0+ 0 nan nan 46.0708 0.0000 nan 100.00%
0 2 0.0000 14 46.0708 0.0000 94 100.00%
CPXPARAM_MIP_Cuts_LiftProj 0
32
Node Left Objective IInf Best_Integer Best_Bound ItCnt Gap
0+ 0 nan nan 110.7059 0.0000 nan 100.00%
0+ 0 nan nan 93.8685 0.0000 nan 100.00%
0 0 0.0000 27 93.8685 0.0000 111 100.00%
0+ 0 nan nan 93.3931 0.0000 nan 100.00%
0+ 0 nan nan 71.8974 0.0000 nan 100.00%
0 2 0.0000 26 71.8974 0.0000 111 100.00%
CPXPARAM_MIP_Cuts_LiftProj 0
33
Node Left Objective IInf Best_Integer Best_Bound ItCnt Gap
0+ 0 nan nan 110.7059 0.0000 nan 100.00%
0+ 0 nan nan 93.8685 0.0000 nan 100.00%
0 0 0.0000 31 93.8685 0.0000 108 100.00%
0+ 0 nan nan 60.1525 0.0000 nan 100.00%
0+ 0 nan nan 56.1444 0.0000 nan 100.00%
0+ 0 nan nan 55.4236 0.0000 nan 100.00%
0+ 0 nan nan 42.9716 0.0000 nan 100.00%
0+ 0 nan nan 36.6204 0.0000 nan 100.00%
0 2 0.0000 19 36.6204 0.0000 108 100.00%
CPXPARAM_MIP_Cuts_LiftProj 0
34
Node Left Objective IInf Best_Integer Best_Bound ItCnt Gap
0+ 0 nan nan 110.7059 0.0000 nan 100.00%
0+ 0 nan nan 74.9711 0.0000 nan 100.00%
0 0 0.0000 23 74.9711 0.0000 113 100.00%
0+ 0 nan nan 70.5384 0.0000 nan 100.00%
0+ 0 nan nan 70.5321 0.0000 nan 100.00%
0+ 0 nan nan 61.1286 0.0000 nan 100.00%
0+ 0 nan nan 47.2519 0.0000 nan 100.00%
0 2 0.0000 21 47.2519 0.0000 113 100.00%
CPXPARAM_MIP_Cuts_LiftProj 0
35
Node Left Objective IInf Best_Integer Best_Bound ItCnt Gap
0+ 0 nan nan 110.7059 0.0000 nan 100.00%
0 0 0.0000 28 110.7059 0.0000 90 100.00%
0+ 0 nan nan 41.4039 0.0000 nan 100.00%
0+ 0 nan nan 40.3828 0.0000 nan 100.00%
0+ 0 nan nan 36.6174 0.0000 nan 100.00%
0+ 0 nan nan 28.5605 0.0000 nan 100.00%
0 2 0.0000 14 28.5605 0.0000 90 100.00%
CPXPARAM_MIP_Cuts_LiftProj 0
36
Node Left Objective IInf Best_Integer Best_Bound ItCnt Gap
0+ 0 nan nan 123.7135 0.0000 nan 100.00%
0+ 0 nan nan 108.6148 0.0000 nan 100.00%
0 0 0.0000 28 108.6148 0.0000 112 100.00%
0+ 0 nan nan 100.1659 0.0000 nan 100.00%
0 0 0.0000 24 100.1659 LiftProj:2 116 100.00%
0+ 0 nan nan 80.5575 0.0000 nan 100.00%
0 0 0.0000 26 80.5575 LiftProj:4 138 100.00%
0+ 0 nan nan 80.0375 0.0000 nan 100.00%
0+ 0 nan nan 78.5047 0.0000 nan 100.00%
0 2 0.0000 24 78.5047 0.0000 138 100.00%
CPXPARAM_MIP_Cuts_LiftProj 0
37
Node Left Objective IInf Best_Integer Best_Bound ItCnt Gap
0+ 0 nan nan 123.7135 0.0000 nan 100.00%
0+ 0 nan nan 108.6148 0.0000 nan 100.00%
0 0 0.0000 31 108.6148 0.0000 99 100.00%
0+ 0 nan nan 72.9404 0.0000 nan 100.00%
0+ 0 nan nan 61.5920 0.0000 nan 100.00%
0+ 0 nan nan 50.5347 0.0000 nan 100.00%
0 2 0.0000 18 50.5347 0.0000 99 100.00%
CPXPARAM_MIP_Cuts_LiftProj 0
38
Node Left Objective IInf Best_Integer Best_Bound ItCnt Gap
0+ 0 nan nan 123.7135 0.0000 nan 100.00%
0+ 0 nan nan 89.1896 0.0000 nan 100.00%
0 0 0.0000 23 89.1896 0.0000 103 100.00%
0+ 0 nan nan 81.0501 0.0000 nan 100.00%
0 0 0.0000 22 81.0501 LiftProj:1 104 100.00%
0 0 0.0000 22 81.0501 LiftProj:6 123 100.00%
0 0 0.0000 21 81.0501 LiftProj:2 126 100.00%
0+ 0 nan nan 78.9483 0.0000 nan 100.00%
0+ 0 nan nan 64.7131 0.0000 nan 100.00%
0 2 0.0000 21 64.7131 0.0000 126 100.00%
CPXPARAM_MIP_Cuts_LiftProj 3
39
Node Left Objective IInf Best_Integer Best_Bound ItCnt Gap
0+ 0 nan nan 123.7135 0.0000 nan 100.00%
0 0 0.0000 29 123.7135 0.0000 93 100.00%
0+ 0 nan nan 73.9869 0.0000 nan 100.00%
0+ 0 nan nan 70.6028 0.0000 nan 100.00%
0+ 0 nan nan 67.4316 0.0000 nan 100.00%
0+ 0 nan nan 56.8217 0.0000 nan 100.00%
0+ 0 nan nan 46.0539 0.0000 nan 100.00%
0 2 0.0000 18 46.0539 0.0000 93 100.00%
CPXPARAM_MIP_Cuts_LiftProj 0
